sat

(objectives
 ((bvadd PriceProv5 (bvadd PriceProv4 (bvadd PriceProv3 (bvadd PriceProv1 PriceProv2)))) (_ bv1079 32))
)
;; statistics
(
 :cnf-variables 1948
 :cnf-literals 9225
 :cnf-clauses 3885
 :sat-checks 14
 :sat-restarts 27
 :sat-decisions 33663
 :sat-random-decisions 19
 :sat-propagations 63381002
 :sat-theory-propagations 13
 :sat-watched-clauses-visited 69222926
 :sat-binary-watched-clauses-visited 43993349
 :sat-conflicts 6212
 :sat-theory-conflicts 0
 :theory-necessary-interface-equalities 0
 :theory-extra-interface-equalities 0
 :euf-total-calls 35490
 :euf-complete-calls 16
 :euf-conflicts 0
 :euf-implications 13
 :euf-explanations 2
 :euf-egraph-nodes-created 11768
 :euf-egraph-nodes-deleted 8612
 :euf-num-asserted-equalities 422159
 :euf-num-asserted-inequalities 314919
 :euf-num-merges 648424
 :euf-num-merges-undone 648424
 :euf-num-atoms-retold 1760
 :la-total-calls 35490
 :la-complete-calls 16
 :la-conflicts 0
 :la-implications 0
 :la-explanations 0
 :la-num-equalities-split 0
 :la-num-tableau-rows 0
 :la-num-tableau-variables 0
 :bv-total-calls 35490
 :bv-complete-calls 16
 :bv-conflicts 0
 :bv-implications 0
 :bv-explanations 0
 :fp-total-calls 35490
 :fp-complete-calls 16
 :fp-conflicts 0
 :fp-implications 0
 :fp-explanations 0
 :arr-total-calls 35490
 :arr-complete-calls 16
 :arr-conflicts 0
 :arr-implications 0
 :arr-explanations 0
 :arr-write-lemmas-added 0
 :arr-row-lemmas-added 0
 :arr-ext-lemmas-added 0
 :arr-const-lemmas-added 0
 :na-total-calls 35490
 :na-complete-calls 16
 :na-conflicts 0
 :na-implications 0
 :na-explanations 0
 :na-num_nonlinear_multiplications 0
 :na-num_axiom_checks 0
 :na-num_zero_lemmas 0
 :na-num_sign_lemmas 0
 :na-num_neutral_lemmas 0
 :na-num_proportionality_lemmas 0
 :na-num_bound_lemmas 0
 :na-num_tangent_lemmas 0
 :na-num_monotonicity_lemmas 0
 :na-num_sat_checks 0
 :na-axiom_check_time 0.000
 :na-sat_check_time 0.000
 :time-seconds 7.127
 :memory-mb 61.121
)
